
Gurobi 10.0.3 (linux64, gurobi_cl) logging started Thu Nov  2 11:34:20 2023

Set parameter Username
Set parameter TimeLimit to value 3600
Set parameter LogFile to value "RCPSP_524.log"
Set parameter Threads to value 32
Academic license - for non-commercial use only - expires 2024-10-30
Using license file /home/jrivera6/gurobi-licenses/v1003/compute-0-39/gurobi.lic

Gurobi Optimizer version 10.0.3 build v10.0.3rc0 (linux64)
Copyright (c) 2023, Gurobi Optimization, LLC

Read MPS format model from file RCPSP_524.mps
Reading time = 0.02 seconds
RCPSP_524: 19624 rows, 7750 columns, 64639 nonzeros

CPU model: Intel(R) Xeon(R) Gold 6242 CPU @ 2.80GHz, instruction set [SSE2|AVX|AVX2|AVX512]
Thread count: 32 physical cores, 32 logical processors, using up to 32 threads

Optimize a model with 19624 rows, 7750 columns and 64639 nonzeros
Model fingerprint: 0x2e13ccc1
Variable types: 62 continuous, 7688 integer (7688 binary)
Coefficient statistics:
  Matrix range     [1e+00, 3e+02]
  Objective range  [1e+00, 1e+00]
  Bounds range     [1e+00, 1e+00]
  RHS range        [1e+00, 3e+02]
Presolve removed 7651 rows and 2656 columns
Presolve time: 1.91s
Presolved: 11973 rows, 5094 columns, 40793 nonzeros
Variable types: 61 continuous, 5033 integer (5033 binary)

Root relaxation: objective 5.700000e+01, 1752 iterations, 0.03 seconds (0.02 work units)

    Nodes    |    Current Node    |     Objective Bounds      |     Work
 Expl Unexpl |  Obj  Depth IntInf | Incumbent    BestBd   Gap | It/Node Time

     0     0   57.00000    0  114          -   57.00000      -     -    2s
     0     0   57.00000    0  374          -   57.00000      -     -    4s
     0     0   57.00000    0  337          -   57.00000      -     -    5s
     0     0   57.00000    0  182          -   57.00000      -     -    8s
     0     0   57.00000    0  183          -   57.00000      -     -    8s
     0     0   57.00284    0  213          -   57.00284      -     -   11s
     0     0   57.36986    0  290          -   57.36986      -     -   11s
     0     0   60.00000    0  392          -   60.00000      -     -   12s
     0     0   60.00000    0  362          -   60.00000      -     -   13s
     0     0   60.00000    0  456          -   60.00000      -     -   14s
     0     0   60.00000    0  423          -   60.00000      -     -   16s
     0     0   60.00000    0  108          -   60.00000      -     -   19s
     0     0   60.00000    0  239          -   60.00000      -     -   19s
     0     0   60.00000    0  117          -   60.00000      -     -   22s
     0     0   60.00000    0  324          -   60.00000      -     -   22s
     0     0   60.00000    0   79          -   60.00000      -     -   24s
     0     0   60.00000    0  290          -   60.00000      -     -   25s
     0     0   60.00000    0  102          -   60.00000      -     -   28s
     0     0   60.00000    0  194          -   60.00000      -     -   28s
     0     0   60.00000    0  192          -   60.00000      -     -   31s
H    0     0                     292.0000000   60.00000  79.5%     -   31s
     0     0   60.00000    0  130  292.00000   60.00000  79.5%     -   31s
H    0     0                     236.0000000   60.00000  74.6%     -   37s
H    0     2                     209.0000000   60.00000  71.3%     -   49s
     0     2   60.00000    0   99  209.00000   60.00000  71.3%     -   49s
     1     4   60.00000    1  135  209.00000   60.00000  71.3%  2346   51s
     7    16   60.00000    3  345  209.00000   60.00000  71.3%   707   56s
H   31    62                     192.0000000   60.00000  68.7%   633   67s
H   33    62                     191.0000000   60.00000  68.6%   624   67s
H   37    62                     189.9999999   60.00000  68.4%   614   67s
H   38    62                     187.0000000   60.00000  67.9%   614   67s
H   52    62                     186.0000000   60.00000  67.7%   601   67s
H   54    62                     184.0000000   60.00000  67.4%   597   67s
    63    93   60.00000    6  384  184.00000   60.00000  67.4%   611   70s
    95   125   60.00000    7  366  184.00000   60.00000  67.4%   541   83s
   159   186   60.00000    9  368  184.00000   60.00000  67.4%   360   86s
   191   224   60.00000   10  283  184.00000   60.00000  67.4%   335   98s
   284   303   61.50000   12  265  184.00000   60.00000  67.4%   274  101s
   434   447   63.00000   15  504  184.00000   60.00000  67.4%   200  106s
H  552   544                     180.0000000   60.00000  66.7%   167  122s
H  567   544                     171.0000000   60.00000  64.9%   164  122s
H  572   544                     170.0000000   60.00000  64.7%   163  122s
   676   694   63.00000   22  489  170.00000   60.00000  64.7%   145  126s
   871   898   63.00000   25  456  170.00000   60.00000  64.7%   122  139s
   986  1011   63.00000   26  453  170.00000   60.00000  64.7%   119  141s
H 1119  1036                     139.0000000   60.00000  56.8%   110  321s
H 1120  1036                     134.0000000   60.00000  55.2%   110  321s
H 1128  1036                     126.0000000   60.00000  52.4%   110  321s
H 1153  1066                     106.0000000   60.00000  43.4%   113  548s
H 1154  1066                      99.0000000   60.00000  39.4%   113  548s
H 1156  1066                      96.0000000   60.00000  37.5%   113  548s
H 1157  1066                      94.0000000   60.00000  36.2%   114  548s
H 1186  1066                      93.0000000   60.00000  35.5%   115  548s
  1187  1162   63.00000   30  498   93.00000   60.00000  35.5%   115  551s
  1303  1258   63.00000   31  458   93.00000   60.00000  35.5%   111  555s
  1589  1515   63.00000   36  444   93.00000   60.00000  35.5%   103  560s
  1899  1779   63.00000   43  419   93.00000   60.00000  35.5%  96.4  567s
  2044  1886   63.00000   45  487   93.00000   60.00000  35.5%  95.7  571s
  2188  1981   63.00000   46  481   93.00000   60.00000  35.5%  94.1  575s
  2307  2178   63.00000   47  479   93.00000   60.00000  35.5%  92.7  583s
  2534  2347   63.00000   54  471   93.00000   60.00000  35.5%  91.6  586s
  2725  2624   63.00000   61  473   93.00000   60.00000  35.5%  90.2  599s
  3033  2868   63.00000   68  466   93.00000   60.00000  35.5%  89.3  603s
  3341  3084   64.00000   78  516   93.00000   60.00000  35.5%  86.1  617s
  3664  3343   64.00000   84  481   93.00000   60.00000  35.5%  86.5  631s
  3983  3344   73.00000   17  130   93.00000   60.00000  35.5%  88.4  650s
  3986  3346   74.00000   83  104   93.00000   60.00000  35.5%  88.3  656s
H 3987  3179                      92.0000000   60.00000  34.8%  88.3  660s
  3990  3181   90.00000  132   86   92.00000   60.00000  34.8%  88.3  667s
H 3991  3022                      91.0000000   60.00000  34.1%  88.2  672s
  3994  3024   60.00000   19  191   91.00000   60.00000  34.1%  88.2  678s
  3996  3026   61.00000   42  491   91.00000   60.00104  34.1%  88.1  685s
H 3996  2874                      90.0000000   60.00104  33.3%  88.1  685s
  3998  2875   60.03709   19  225   90.00000   60.03709  33.3%  88.1  693s
  4000  2876   78.00000  121  200   90.00000   60.04067  33.3%  88.0  699s
  4001  2877   78.00000  117  372   90.00000   60.04067  33.3%  88.0  700s
  4002  2878   65.00000    7  214   90.00000   60.04177  33.3%  88.0  705s
H 4003  2734                      89.0000000   60.04177  32.5%  88.0  710s
  4005  2736   81.00000   37  354   89.00000   60.04177  32.5%  87.9  715s
  4008  2738   84.00000   44  140   89.00000   60.04547  32.5%  87.9  723s
  4009  2738   68.00000   59  317   89.00000   60.04547  32.5%  87.8  725s
  4010  2739   73.00000   37  218   89.00000   60.04557  32.5%  87.8  731s
  4012  2740   67.00000   43  269   89.00000   60.04566  32.5%  87.8  739s
  4013  2741   66.00000   32  449   89.00000   60.04658  32.5%  87.8  741s
  4014  2742   77.00000   53  334   89.00000   60.04658  32.5%  87.7  746s
  4016  2743   78.00000  139  329   89.00000   60.04754  32.5%  87.7  752s
  4018  2744   75.03358   99  313   89.00000   60.06209  32.5%  87.6  758s
  4019  2745   63.00000   50  432   89.00000   60.06771  32.5%  87.6  760s
H 4019  2607                      88.0000000   60.06771  31.7%  87.6  764s
  4020  2608   88.00000  120  191   88.00000   60.07218  31.7%  87.6  766s
H 4020  2477                      87.0000000   60.07218  31.0%  87.6  767s
H 4021  2353                      87.0000000   60.08175  30.9%  87.6  774s
  4023  2355   65.00000   19  367   87.00000   60.08558  30.9%  87.5  777s
  4024  2355   66.00000   33  313   87.00000   60.08558  30.9%  87.5  783s
H 4024  2236                      86.0000000   60.08558  30.1%  87.5  784s
H 4024  2124                      85.0000000   60.08558  29.3%  87.5  784s
  4025  2125   77.00000   39  444   85.00000   60.08558  29.3%  87.5  786s
  4026  2126   76.00000  102  198   85.00000   60.09280  29.3%  87.5  793s
  4027  2126   85.00000   92  407   85.00000   60.09354  29.3%  87.4  796s
  4028  2127   70.00000   74  191   85.00000   60.09902  29.3%  87.4  802s
  4030  2128   74.00000   35  247   85.00000   60.09902  29.3%  87.4  809s
  4031  2129   70.00000   15  458   85.00000   60.09902  29.3%  87.4  812s
  4032  2130   67.00000   54  296   85.00000   60.09973  29.3%  87.3  817s
  4033  2130   60.09973   33  426   85.00000   60.09973  29.3%  87.3  820s
  4034  2131   66.00000   34  265   85.00000   60.09973  29.3%  87.3  827s
  4035  2132   66.00000   16  403   85.00000   60.09973  29.3%  87.3  830s
  4036  2132   66.00000   27  169   85.00000   60.09973  29.3%  87.3  836s
  4038  2134   72.00000   48  344   85.00000   60.09973  29.3%  87.2  844s
H 4038  2026                      84.0000000   60.09973  28.5%  87.2  844s
  4039  2026   71.00000   19  568   84.00000   60.09973  28.5%  87.2  846s
  4041  2028   75.00000   95  459   84.00000   60.09973  28.5%  87.1  851s
  4042  2028   60.09973   15  308   84.00000   60.09973  28.5%  87.1  858s
  4043  2029   61.00000   16  457   84.00000   60.09973  28.5%  87.1  861s
  4044  2030   64.00000   65  189   84.00000   60.09973  28.5%  87.1  868s
  4047  2033   71.00000   22  130   84.00000   60.09973  28.5%   135  877s
  4049  2034   75.00000   78  104   84.00000   60.09973  28.5%   135  883s
  4050  2035   70.00000   70  127   84.00000   60.09973  28.5%   135  887s
H 4051  1934                      83.0000000   60.09973  27.6%   135  891s
H 4051  1837                      82.0000000   60.09973  26.7%   135  893s
  4053  1838   64.00000   48  362   82.00000   60.09973  26.7%   135  895s
  4054  1839   78.00000   25  154   82.00000   60.10116  26.7%   135  900s
  4056  1840   75.00000   36  230   82.00000   60.10423  26.7%   135  906s
  4058  1841   60.10478   31  119   82.00000   60.10478  26.7%   135  916s
  4060  1843   82.00000   58  212   82.00000   60.10478  26.7%   135  924s
  4061  1843   65.00000   26  314   82.00000   60.10613  26.7%   135  926s
  4062  1844   65.00000   26  187   82.00000   60.10620  26.7%   135  932s
  4064  1845   63.00000   30  258   82.00000   60.10620  26.7%   135  940s
  4066  1847   82.00000   37  170   82.00000   60.10620  26.7%   134  949s
  4067  1847   66.00000   23  301   82.00000   60.10620  26.7%   134  951s
  4068  1848   66.00000   22  278   82.00000   60.10620  26.7%   134  957s
  4070  1849   71.00000   34  234   82.00000   60.10620  26.7%   134  965s
  4072  1851   82.00000   23  136   82.00000   60.10620  26.7%   134  972s
H 4073  1758                      82.0000000   60.10659  26.7%   134  980s
  4076  1760   70.00000   28  210   82.00000   60.10693  26.7%   134  988s
  4077  1761   68.00000   18  337   82.00000   60.10693  26.7%   134  990s
  4079  1762   71.00000   23  362   82.00000   60.10693  26.7%   134  996s
  4080  1763   82.00000   56  216   82.00000   60.11566  26.7%   134 1000s
  4082  1764   73.00000   52  213   82.00000   60.11796  26.7%   134 1010s
  4084  1766   64.00000   13  179   82.00000   60.11796  26.7%   134 1018s
  4085  1766   66.00000   15  370   82.00000   60.11796  26.7%   134 1021s
  4086  1767   74.00000   83  173   82.00000   60.11833  26.7%   134 1026s
  4088  1768   66.00000   37  210   82.00000   60.11988  26.7%   134 1034s
  4089  1769   69.00000   46  365   82.00000   60.12009  26.7%   134 1035s
  4090  1770   82.00000  132  289   82.00000   60.12110  26.7%   134 1041s
H 4091  1681                      81.0000000   60.12110  25.8%   134 1050s
  4094  1683   60.12110   19  266   81.00000   60.12110  25.8%   134 1057s
  4095  1684   66.00000   66  460   81.00000   60.12110  25.8%   134 1060s
H 4095  1599                      80.0000000   60.12110  24.8%   134 1066s
  4098  1601   60.12110   19  297   80.00000   60.12110  24.8%   133 1073s
  4100  1602   78.00000  121  308   80.00000   60.12110  24.8%   133 1080s
  4103  1606   69.00000   51  130   80.00000   60.12110  24.8%   173 1089s
  4105  1607   80.00000   37   78   80.00000   60.12110  24.8%   173 1095s
  4107  1609   78.00000  108  171   80.00000   60.12110  24.8%   173 1100s
  4110  1611   73.00000   37  262   80.00000   60.12110  24.8%   173 1106s
H 4111  1530                      80.0000000   60.12110  24.8%   173 1110s
  4114  1532   77.00000   53  339   80.00000   60.12110  24.8%   173 1116s
  4116  1534   78.00000  139  170   80.00000   60.12110  24.8%   173 1124s
  4117  1534   78.03929   66  292   80.00000   60.12110  24.8%   173 1126s
  4118  1535   75.03358   99  220   80.00000   60.12110  24.8%   173 1131s
  4120  1536   80.00000  120  177   80.00000   60.12110  24.8%   173 1136s
  4122  1538   65.00000   45  158   80.00000   60.12110  24.8%   173 1141s
  4124  1539   66.00000   33  190   80.00000   60.12110  24.8%   172 1148s
  4125  1540   77.00000   39  190   80.00000   60.12110  24.8%   172 1150s
  4127  1544   60.13163   32  160   80.00000   60.13163  24.8%   187 1165s
  4129  1547   60.14412   33  278   80.00000   60.14412  24.8%   187 1177s
  4133  1554   60.26389   34  313   80.00000   60.14684  24.8%   187 1189s
  4141  1567   60.31253   35  335   80.00000   60.31253  24.6%   188 1202s
  4157  1589   60.38119   36  346   80.00000   60.38119  24.5%   189 1218s
  4189  1610   60.95014   37  365   80.00000   60.54003  24.3%   192 1227s
  4221  1631   60.95014   38  358   80.00000   60.54003  24.3%   194 1294s
H 4227  1551                      78.0000000   60.54003  22.4%   194 1294s
  4253  1570   60.95014   38  352   78.00000   60.54003  22.4%   194 1305s
  4285  1587   62.62500   39  326   78.00000   60.54003  22.4%   194 1313s
  4317  1611   68.08609   39  315   78.00000   60.54003  22.4%   194 1322s
  4357  1634   65.00000   40  336   78.00000   60.71807  22.2%   193 1331s
  4400  1666   65.00000   40  298   78.00000   60.82973  22.0%   192 1346s
  4449  1693   65.00000   41  312   78.00000   60.82973  22.0%   192 1353s
  4498  1713   65.00000   41  309   78.00000   60.82973  22.0%   191 1364s
  4544  1748   65.00000   42  311   78.00000   60.95014  21.9%   190 1375s
  4598  1779   66.00000   43  296   78.00000   60.95014  21.9%   189 1383s
  4653  1809   69.00000   43  257   78.00000   60.95014  21.9%   187 1399s
  4709  1844   70.00000   44  291   78.00000   60.95014  21.9%   186 1417s
  4771  1878   70.00000   46  281   78.00000   60.95014  21.9%   185 1428s
  4833  1917   70.00000   47  271   78.00000   60.95014  21.9%   184 1439s
  4901  2015   70.00000   48  271   78.00000   60.95014  21.9%   183 1442s
  5034  2009   70.00000   50  287   78.00000   60.95014  21.9%   179 1454s
  5101  2098   70.00000   51  287   78.00000   60.95014  21.9%   179 1464s
  5252  2064   72.00000   54  296   78.00000   60.95014  21.9%   176 1480s
H 5263  1987                      78.0000000   60.95014  21.9%   176 1480s
  5301  2010   73.00000   54  277   78.00000   60.95014  21.9%   177 1494s
  5356  2137   72.00000   56  292   78.00000   60.95014  21.9%   176 1498s
  5547  2099   72.00000   59  292   78.00000   60.95014  21.9%   172 1513s
  5609  2218   72.00000   60  294   78.00000   60.95014  21.9%   172 1519s
  5797  2161   72.00000   62  293   78.00000   60.95014  21.9%   169 1535s
  5869  2171   72.00000   63  294   78.00000   60.95014  21.9%   169 1546s
  5932  2345   72.00000   64  289   78.00000   60.95014  21.9%   169 1554s
  6179  2281   74.00000   69  284   78.00000   60.95014  21.9%   164 1570s
  6263  2401   72.00000   70  310   78.00000   60.95014  21.9%   165 1576s
  6464  2359   75.00000   74  268   78.00000   60.95014  21.9%   161 1598s
  6534  2463   75.00000   76  322   78.00000   60.95014  21.9%   163 1610s
  6690  2708   75.00000   78  303   78.00000   60.95014  21.9%   162 1645s
  7077  2588   75.00000   87  265   78.00000   60.95014  21.9%   155 1660s
  7174  2850   75.00000   88  271   78.00000   60.95014  21.9%   156 1687s
  7551  2767   75.00000   98  238   78.00000   60.95014  21.9%   151 1700s
  7642  3250   75.00000  100  233   78.00000   60.95014  21.9%   151 1750s
  8241  3025   75.00000  111  198   78.00000   60.95014  21.9%   142 1771s
  8326  3285   75.00000  112  240   78.00000   60.95014  21.9%   144 1802s
  8721  3297 infeasible  123        78.00000   60.95014  21.9%   140 1823s
  8833  3876   72.00000   61  427   78.00000   60.95014  21.9%   141 1874s
  9591  3839   75.00000   68  309   78.00000   60.95014  21.9%   133 1904s
  9720  3861 infeasible   69        78.00000   60.95014  21.9%   134 4061s
H 9724  3320                      77.0000000   60.95014  20.8%   134 4080s
  9742  3320   64.00000   57  348   77.00000   60.95014  20.8%   134 4088s

Cutting planes:
  Learned: 2
  Gomory: 22
  Cover: 88
  Implied bound: 44
  Projected implied bound: 5
  Clique: 10
  MIR: 119
  StrongCG: 18
  Flow cover: 488
  Inf proof: 12
  Zero half: 2
  RLT: 171
  Relax-and-lift: 162

Explored 9758 nodes (1360176 simplex iterations) in 4150.95 seconds (171.44 work units)
Thread count was 32 (of 32 available processors)

Solution count 10: 77 78 78 ... 84

Time limit reached
Best objective 7.699999999220e+01, best bound 6.095014147035e+01, gap 20.8440%

Wrote result file 'RCPSP_524.sol'

